2
150 3
71
30 1 6
31 1 3
32 1 9
33 1 10
34 1 5
35 1 8
36 1 10
37 1 9
38 1 12
39 1 5
40 1 4
41 1 9
42 1 5
43 1 10
44 1 12
45 1 2
46 1 2
47 1 9
48 1 5
49 1 7
50 1 11
51 1 8
52 1 8
53 1 5
54 1 5
55 1 7
56 1 11
57 1 7
58 1 9
59 1 4
60 1 1
61 1 5
62 1 8
63 1 6
64 1 10
65 1 8
66 1 8
67 1 4
68 1 7
69 1 4
70 1 8
71 1 5
72 1 8
73 1 7
74 1 9
75 1 4
76 1 9
77 1 7
78 1 3
79 1 11
80 1 14
81 1 8
82 1 5
83 1 10
84 1 3
85 1 8
86 1 6
87 1 2
88 1 6
89 1 6
90 1 5
91 1 8
92 1 6
93 1 8
94 1 6
95 1 8
96 1 9
97 1 6
98 1 4
99 1 12
100 1 11
